(declare-const |K:57:58| Int)
(declare-const havoc Int)
(declare-const |y':52:60| Int)
(declare-const |x':51:59| Int)
(declare-const |havoc:1| Int)
(assert (and (<= (- havoc) 0) (<= (- |havoc:1|) 0)
               (or (not (<= (- |K:57:58|) 0))
                     (= (+ |x':51:59| |K:57:58| (- havoc)) 0))
               (or (not (<= (- |K:57:58|) 0))
                     (= (+ |y':52:60| |K:57:58| (- |havoc:1|)) 0))
               (or (and (= |K:57:58| 0) (= (+ (- |y':52:60|) |havoc:1|) 0)
                          (= (+ (- |x':51:59|) havoc) 0))
                     (and (<= (+ (- |K:57:58|) 1) 0) (<= (+ (- havoc) 1) 0)
                            (<= (- |x':51:59|) 0))) (<= (- |K:57:58|) 0)
               (<= (- |x':51:59|) 0) (<= (- |x':51:59|) 0) (<= |x':51:59| 0)
               (= (+ (- |havoc:1|) havoc) 0) (not (= |y':52:60| 0))))
(check-sat)
